\* The Diet Problem *\
Minimize
Total_Cost: 0.23 Foods_2%_Lowfat_Milk + 0.16 Foods_3.3%_Fat,Whole_Milk
 + 0.24 Foods_Apple,Raw,W_Skin + 0.16 Foods_Apple_Pie + 0.16 Foods_Bagels
 + 0.15 Foods_Banana + 0.67 Foods_Beanbacn_Soup,W_Watr
 + 0.15 Foods_Bologna,Turkey + 0.05 Foods_Butter,Regular
 + 0.31 Foods_Cap'N_Crunch + 0.07 Foods_Carrots,Raw + 0.04 Foods_Celery,_Raw
 + 0.25 Foods_Cheddar_Cheese + 0.28 Foods_Cheerios
 + 0.39 Foods_Chicknoodl_Soup + 0.03 Foods_Chocolate_Chip_Cookies
 + 0.28 Foods_Corn_Flks,_Kellogg'S + 0.39 Foods_Couscous
 + 0.65 Foods_Crm_Mshrm_Soup,W_Mlk + 0.27 Foods_Frankfurter,_Beef
 + 0.16 Foods_Frozen_Broccoli + 0.18 Foods_Frozen_Corn + 0.32 Foods_Grapes
 + 0.33 Foods_Ham,Sliced,Extralean + 0.83 Foods_Hamburger_W_Toppings
 + 0.31 Foods_Hotdog,_Plain + 0.15 Foods_Kielbasa,Prk
 + 0.49 Foods_Kiwifruit,Raw,Fresh + 0.02 Foods_Lettuce,Iceberg,Raw
 + 0.17 Foods_Macaroni,Ckd + 0.52 Foods_Malt_O_Meal,Choc
 + 0.99 Foods_New_E_Clamchwd,W_Mlk + 0.75 Foods_Neweng_Clamchwd
 + 0.82 Foods_Oatmeal + 0.09 Foods_Oatmeal_Cookies + 0.15 Foods_Oranges
 + 0.07 Foods_Peanut_Butter + 0.53 Foods_Peppers,_Sweet,_Raw
 + 0.44 Foods_Pizza_W_Pepperoni + 0.08 Foods_Poached_Eggs
 + 0.04 Foods_Popcorn,Air_Popped + 0.81 Foods_Pork
 + 0.22 Foods_Potato_Chips,Bbqflvr + 0.06 Foods_Potatoes,_Baked
 + 0.12 Foods_Pretzels + 0.34 Foods_Raisin_Brn,_Kellg'S
 + 0.32 Foods_Rice_Krispies + 0.84 Foods_Roasted_Chicken
 + 0.45 Foods_Sardines_in_Oil + 0.11 Foods_Scrambled_Eggs
 + 0.13 Foods_Skim_Milk + 0.78 Foods_Spaghetti_W__Sauce + 0.38 Foods_Special_K
 + 0.67 Foods_Splt_Pea&Hamsoup + 0.59 Foods_Taco + 0.31 Foods_Tofu
 + 0.27 Foods_Tomato,Red,Ripe,Raw + 0.39 Foods_Tomato_Soup
 + 0.19 Foods_Tortilla_Chip + 0.71 Foods_Vegetbeef_Soup
 + 0.05 Foods_Wheat_Bread + 0.06 Foods_White_Bread + 0.08 Foods_White_Rice
 + 0.69 Foods_White_Tuna_in_Water
Subject To
max_Calcium_mg: 296.7 Foods_2%_Lowfat_Milk + 291.3 Foods_3.3%_Fat,Whole_Milk
 + 9.7 Foods_Apple,Raw,W_Skin + 3.1 Foods_Apple_Pie + 21 Foods_Bagels
 + 6.8 Foods_Banana + 81 Foods_Beanbacn_Soup,W_Watr
 + 23.8 Foods_Bologna,Turkey + 1.2 Foods_Butter,Regular
 + 4.8 Foods_Cap'N_Crunch + 14.9 Foods_Carrots,Raw + 16 Foods_Celery,_Raw
 + 202 Foods_Cheddar_Cheese + 48.6 Foods_Cheerios + 27.1 Foods_Chicknoodl_Soup
 + 6.2 Foods_Chocolate_Chip_Cookies + 0.9 Foods_Corn_Flks,_Kellogg'S
 + 7.2 Foods_Couscous + 178.6 Foods_Crm_Mshrm_Soup,W_Mlk
 + 9 Foods_Frankfurter,_Beef + 159 Foods_Frozen_Broccoli
 + 3.3 Foods_Frozen_Corn + 3.4 Foods_Grapes + 2 Foods_Ham,Sliced,Extralean
 + 51.4 Foods_Hamburger_W_Toppings + 23.5 Foods_Hotdog,_Plain
 + 11.4 Foods_Kielbasa,Prk + 19.8 Foods_Kiwifruit,Raw,Fresh
 + 3.8 Foods_Lettuce,Iceberg,Raw + 4.9 Foods_Macaroni,Ckd
 + 23.1 Foods_Malt_O_Meal,Choc + 186 Foods_New_E_Clamchwd,W_Mlk
 + 82.8 Foods_Neweng_Clamchwd + 18.7 Foods_Oatmeal + 6.7 Foods_Oatmeal_Cookies
 + 52.4 Foods_Oranges + 13.1 Foods_Peanut_Butter
 + 6.7 Foods_Peppers,_Sweet,_Raw + 64.6 Foods_Pizza_W_Pepperoni
 + 24.5 Foods_Poached_Eggs + 2.8 Foods_Popcorn,Air_Popped + 59.9 Foods_Pork
 + 14.2 Foods_Potato_Chips,Bbqflvr + 22.7 Foods_Potatoes,_Baked
 + 10.2 Foods_Pretzels + 12.9 Foods_Raisin_Brn,_Kellg'S
 + 4 Foods_Rice_Krispies + 21.9 Foods_Roasted_Chicken
 + 91.7 Foods_Sardines_in_Oil + 42.6 Foods_Scrambled_Eggs
 + 302.3 Foods_Skim_Milk + 80.2 Foods_Spaghetti_W__Sauce + 8.2 Foods_Special_K
 + 33.6 Foods_Splt_Pea&Hamsoup + 220.6 Foods_Taco + 121.8 Foods_Tofu
 + 6.2 Foods_Tomato,Red,Ripe,Raw + 27.6 Foods_Tomato_Soup
 + 43.7 Foods_Tortilla_Chip + 32.6 Foods_Vegetbeef_Soup
 + 10.8 Foods_Wheat_Bread + 26.2 Foods_White_Bread + 7.9 Foods_White_Rice
 + 3.4 Foods_White_Tuna_in_Water <= 1500
max_Calories: 121.2 Foods_2%_Lowfat_Milk + 149.9 Foods_3.3%_Fat,Whole_Milk
 + 81.4 Foods_Apple,Raw,W_Skin + 67.2 Foods_Apple_Pie + 78 Foods_Bagels
 + 104.9 Foods_Banana + 172 Foods_Beanbacn_Soup,W_Watr
 + 56.4 Foods_Bologna,Turkey + 35.8 Foods_Butter,Regular
 + 119.6 Foods_Cap'N_Crunch + 23.7 Foods_Carrots,Raw + 6.4 Foods_Celery,_Raw
 + 112.7 Foods_Cheddar_Cheese + 111 Foods_Cheerios
 + 150.1 Foods_Chicknoodl_Soup + 78.1 Foods_Chocolate_Chip_Cookies
 + 110.5 Foods_Corn_Flks,_Kellogg'S + 100.8 Foods_Couscous
 + 203.4 Foods_Crm_Mshrm_Soup,W_Mlk + 141.8 Foods_Frankfurter,_Beef
 + 73.8 Foods_Frozen_Broccoli + 72.2 Foods_Frozen_Corn + 15.1 Foods_Grapes
 + 37.1 Foods_Ham,Sliced,Extralean + 275 Foods_Hamburger_W_Toppings
 + 242.1 Foods_Hotdog,_Plain + 80.6 Foods_Kielbasa,Prk
 + 46.4 Foods_Kiwifruit,Raw,Fresh + 2.6 Foods_Lettuce,Iceberg,Raw
 + 98.7 Foods_Macaroni,Ckd + 607.2 Foods_Malt_O_Meal,Choc
 + 163.7 Foods_New_E_Clamchwd,W_Mlk + 175.7 Foods_Neweng_Clamchwd
 + 145.1 Foods_Oatmeal + 81 Foods_Oatmeal_Cookies + 61.6 Foods_Oranges
 + 188.5 Foods_Peanut_Butter + 20 Foods_Peppers,_Sweet,_Raw
 + 181 Foods_Pizza_W_Pepperoni + 74.5 Foods_Poached_Eggs
 + 108.3 Foods_Popcorn,Air_Popped + 710.8 Foods_Pork
 + 139.2 Foods_Potato_Chips,Bbqflvr + 171.5 Foods_Potatoes,_Baked
 + 108 Foods_Pretzels + 115.1 Foods_Raisin_Brn,_Kellg'S
 + 112.2 Foods_Rice_Krispies + 277.4 Foods_Roasted_Chicken
 + 49.9 Foods_Sardines_in_Oil + 99.6 Foods_Scrambled_Eggs
 + 85.5 Foods_Skim_Milk + 358.2 Foods_Spaghetti_W__Sauce
 + 110.8 Foods_Special_K + 184.8 Foods_Splt_Pea&Hamsoup + 369.4 Foods_Taco
 + 88.2 Foods_Tofu + 25.8 Foods_Tomato,Red,Ripe,Raw + 170.7 Foods_Tomato_Soup
 + 142 Foods_Tortilla_Chip + 158.1 Foods_Vegetbeef_Soup + 65 Foods_Wheat_Bread
 + 65 Foods_White_Bread + 102.7 Foods_White_Rice
 + 115.6 Foods_White_Tuna_in_Water <= 2500
max_Carbohydrates_g: 11.7 Foods_2%_Lowfat_Milk
 + 11.4 Foods_3.3%_Fat,Whole_Milk + 21 Foods_Apple,Raw,W_Skin
 + 9.6 Foods_Apple_Pie + 15.1 Foods_Bagels + 26.7 Foods_Banana
 + 22.8 Foods_Beanbacn_Soup,W_Watr + 0.3 Foods_Bologna,Turkey
 + 23 Foods_Cap'N_Crunch + 5.6 Foods_Carrots,Raw + 1.5 Foods_Celery,_Raw
 + 0.4 Foods_Cheddar_Cheese + 19.6 Foods_Cheerios + 18.7 Foods_Chicknoodl_Soup
 + 9.3 Foods_Chocolate_Chip_Cookies + 24.5 Foods_Corn_Flks,_Kellogg'S
 + 20.9 Foods_Couscous + 15 Foods_Crm_Mshrm_Soup,W_Mlk
 + 0.8 Foods_Frankfurter,_Beef + 13.6 Foods_Frozen_Broccoli
 + 17.1 Foods_Frozen_Corn + 4.1 Foods_Grapes + 0.3 Foods_Ham,Sliced,Extralean
 + 32.7 Foods_Hamburger_W_Toppings + 18 Foods_Hotdog,_Plain
 + 0.6 Foods_Kielbasa,Prk + 11.3 Foods_Kiwifruit,Raw,Fresh
 + 0.4 Foods_Lettuce,Iceberg,Raw + 19.8 Foods_Macaroni,Ckd
 + 128.2 Foods_Malt_O_Meal,Choc + 16.6 Foods_New_E_Clamchwd,W_Mlk
 + 21.8 Foods_Neweng_Clamchwd + 25.3 Foods_Oatmeal
 + 12.4 Foods_Oatmeal_Cookies + 15.4 Foods_Oranges + 6.9 Foods_Peanut_Butter
 + 4.8 Foods_Peppers,_Sweet,_Raw + 19.9 Foods_Pizza_W_Pepperoni
 + 0.6 Foods_Poached_Eggs + 22.1 Foods_Popcorn,Air_Popped
 + 15 Foods_Potato_Chips,Bbqflvr + 39.9 Foods_Potatoes,_Baked
 + 22.5 Foods_Pretzels + 27.9 Foods_Raisin_Brn,_Kellg'S
 + 24.8 Foods_Rice_Krispies + 1.3 Foods_Scrambled_Eggs + 11.9 Foods_Skim_Milk
 + 58.3 Foods_Spaghetti_W__Sauce + 21.3 Foods_Special_K
 + 26.8 Foods_Splt_Pea&Hamsoup + 26.7 Foods_Taco + 2.2 Foods_Tofu
 + 5.7 Foods_Tomato,Red,Ripe,Raw + 33.2 Foods_Tomato_Soup
 + 17.8 Foods_Tortilla_Chip + 20.4 Foods_Vegetbeef_Soup
 + 12.4 Foods_Wheat_Bread + 11.8 Foods_White_Bread + 22.3 Foods_White_Rice
 <= 450
max_Cholesterol_mg: 18.3 Foods_2%_Lowfat_Milk + 33.2 Foods_3.3%_Fat,Whole_Milk
 + 2.5 Foods_Beanbacn_Soup,W_Watr + 28.1 Foods_Bologna,Turkey
 + 10.9 Foods_Butter,Regular + 29.4 Foods_Cheddar_Cheese
 + 12.3 Foods_Chicknoodl_Soup + 5.1 Foods_Chocolate_Chip_Cookies
 + 19.8 Foods_Crm_Mshrm_Soup,W_Mlk + 27.4 Foods_Frankfurter,_Beef
 + 13.3 Foods_Ham,Sliced,Extralean + 42.8 Foods_Hamburger_W_Toppings
 + 44.1 Foods_Hotdog,_Plain + 17.4 Foods_Kielbasa,Prk
 + 22.3 Foods_New_E_Clamchwd,W_Mlk + 10 Foods_Neweng_Clamchwd
 + 14.2 Foods_Pizza_W_Pepperoni + 211.5 Foods_Poached_Eggs + 105.1 Foods_Pork
 + 129.9 Foods_Roasted_Chicken + 34.1 Foods_Sardines_in_Oil
 + 211.2 Foods_Scrambled_Eggs + 4.4 Foods_Skim_Milk
 + 7.2 Foods_Splt_Pea&Hamsoup + 56.4 Foods_Taco + 10 Foods_Vegetbeef_Soup
 + 35.7 Foods_White_Tuna_in_Water <= 240
max_Dietary_Fiber_g: 3.7 Foods_Apple,Raw,W_Skin + 0.5 Foods_Apple_Pie
 + 0.6 Foods_Bagels + 2.7 Foods_Banana + 8.6 Foods_Beanbacn_Soup,W_Watr
 + 0.5 Foods_Cap'N_Crunch + 1.6 Foods_Carrots,Raw + 0.7 Foods_Celery,_Raw
 + 2 Foods_Cheerios + 1.5 Foods_Chicknoodl_Soup
 + 0.7 Foods_Corn_Flks,_Kellogg'S + 1.3 Foods_Couscous
 + 0.5 Foods_Crm_Mshrm_Soup,W_Mlk + 8.5 Foods_Frozen_Broccoli
 + 2 Foods_Frozen_Corn + 0.2 Foods_Grapes + 2.6 Foods_Kiwifruit,Raw,Fresh
 + 0.3 Foods_Lettuce,Iceberg,Raw + 0.9 Foods_Macaroni,Ckd
 + 1.5 Foods_New_E_Clamchwd,W_Mlk + 1.5 Foods_Neweng_Clamchwd
 + 4 Foods_Oatmeal + 0.6 Foods_Oatmeal_Cookies + 3.1 Foods_Oranges
 + 2.1 Foods_Peanut_Butter + 1.3 Foods_Peppers,_Sweet,_Raw
 + 4.3 Foods_Popcorn,Air_Popped + 1.2 Foods_Potato_Chips,Bbqflvr
 + 3.2 Foods_Potatoes,_Baked + 0.9 Foods_Pretzels
 + 4 Foods_Raisin_Brn,_Kellg'S + 0.4 Foods_Rice_Krispies
 + 11.6 Foods_Spaghetti_W__Sauce + 0.7 Foods_Special_K
 + 4.1 Foods_Splt_Pea&Hamsoup + 1.4 Foods_Tofu + 1.4 Foods_Tomato,Red,Ripe,Raw
 + Foods_Tomato_Soup + 1.8 Foods_Tortilla_Chip + 4 Foods_Vegetbeef_Soup
 + 1.3 Foods_Wheat_Bread + 1.1 Foods_White_Bread + 0.3 Foods_White_Rice <= 250
max_Protein_g: 8.1 Foods_2%_Lowfat_Milk + 8 Foods_3.3%_Fat,Whole_Milk
 + 0.3 Foods_Apple,Raw,W_Skin + 0.5 Foods_Apple_Pie + 3 Foods_Bagels
 + 1.2 Foods_Banana + 7.9 Foods_Beanbacn_Soup,W_Watr
 + 3.9 Foods_Bologna,Turkey + 1.4 Foods_Cap'N_Crunch + 0.6 Foods_Carrots,Raw
 + 0.3 Foods_Celery,_Raw + 7 Foods_Cheddar_Cheese + 4.3 Foods_Cheerios
 + 7.9 Foods_Chicknoodl_Soup + 0.9 Foods_Chocolate_Chip_Cookies
 + 2.3 Foods_Corn_Flks,_Kellogg'S + 3.4 Foods_Couscous
 + 6.1 Foods_Crm_Mshrm_Soup,W_Mlk + 5.4 Foods_Frankfurter,_Beef
 + 8 Foods_Frozen_Broccoli + 2.5 Foods_Frozen_Corn + 0.2 Foods_Grapes
 + 5.5 Foods_Ham,Sliced,Extralean + 13.6 Foods_Hamburger_W_Toppings
 + 10.4 Foods_Hotdog,_Plain + 3.4 Foods_Kielbasa,Prk
 + 0.8 Foods_Kiwifruit,Raw,Fresh + 0.2 Foods_Lettuce,Iceberg,Raw
 + 3.3 Foods_Macaroni,Ckd + 17.3 Foods_Malt_O_Meal,Choc
 + 9.5 Foods_New_E_Clamchwd,W_Mlk + 10.9 Foods_Neweng_Clamchwd
 + 6.1 Foods_Oatmeal + 1.1 Foods_Oatmeal_Cookies + 1.2 Foods_Oranges
 + 7.7 Foods_Peanut_Butter + 0.7 Foods_Peppers,_Sweet,_Raw
 + 10.1 Foods_Pizza_W_Pepperoni + 6.2 Foods_Poached_Eggs
 + 3.4 Foods_Popcorn,Air_Popped + 13.8 Foods_Pork
 + 2.2 Foods_Potato_Chips,Bbqflvr + 3.7 Foods_Potatoes,_Baked
 + 2.6 Foods_Pretzels + 4 Foods_Raisin_Brn,_Kellg'S + 1.9 Foods_Rice_Krispies
 + 42.2 Foods_Roasted_Chicken + 5.9 Foods_Sardines_in_Oil
 + 6.7 Foods_Scrambled_Eggs + 8.4 Foods_Skim_Milk
 + 8.2 Foods_Spaghetti_W__Sauce + 5.6 Foods_Special_K
 + 11.1 Foods_Splt_Pea&Hamsoup + 20.7 Foods_Taco + 9.4 Foods_Tofu
 + Foods_Tomato,Red,Ripe,Raw + 4.1 Foods_Tomato_Soup + 2 Foods_Tortilla_Chip
 + 11.2 Foods_Vegetbeef_Soup + 2.2 Foods_Wheat_Bread + 2.3 Foods_White_Bread
 + 2.1 Foods_White_Rice + 22.7 Foods_White_Tuna_in_Water <= 100
max_Sodium_mg: 121.8 Foods_2%_Lowfat_Milk + 119.6 Foods_3.3%_Fat,Whole_Milk
 + 75.4 Foods_Apple_Pie + 151.4 Foods_Bagels + 1.1 Foods_Banana
 + 951.3 Foods_Beanbacn_Soup,W_Watr + 248.9 Foods_Bologna,Turkey
 + 41.3 Foods_Butter,Regular + 213.3 Foods_Cap'N_Crunch
 + 19.2 Foods_Carrots,Raw + 34.8 Foods_Celery,_Raw
 + 173.7 Foods_Cheddar_Cheese + 307.6 Foods_Cheerios
 + 1862.2 Foods_Chicknoodl_Soup + 57.8 Foods_Chocolate_Chip_Cookies
 + 290.5 Foods_Corn_Flks,_Kellogg'S + 4.5 Foods_Couscous
 + 1076.3 Foods_Crm_Mshrm_Soup,W_Mlk + 461.7 Foods_Frankfurter,_Beef
 + 68.2 Foods_Frozen_Broccoli + 2.5 Foods_Frozen_Corn + 0.5 Foods_Grapes
 + 405.1 Foods_Ham,Sliced,Extralean + 563.9 Foods_Hamburger_W_Toppings
 + 670.3 Foods_Hotdog,_Plain + 279.8 Foods_Kielbasa,Prk
 + 3.8 Foods_Kiwifruit,Raw,Fresh + 1.8 Foods_Lettuce,Iceberg,Raw
 + 0.7 Foods_Macaroni,Ckd + 16.5 Foods_Malt_O_Meal,Choc
 + 992 Foods_New_E_Clamchwd,W_Mlk + 1864.9 Foods_Neweng_Clamchwd
 + 2.3 Foods_Oatmeal + 68.9 Foods_Oatmeal_Cookies + 155.5 Foods_Peanut_Butter
 + 1.5 Foods_Peppers,_Sweet,_Raw + 267 Foods_Pizza_W_Pepperoni
 + 140 Foods_Poached_Eggs + 1.1 Foods_Popcorn,Air_Popped + 38.4 Foods_Pork
 + 212.6 Foods_Potato_Chips,Bbqflvr + 15.2 Foods_Potatoes,_Baked
 + 486.2 Foods_Pretzels + 204.4 Foods_Raisin_Brn,_Kellg'S
 + 340.8 Foods_Rice_Krispies + 125.6 Foods_Roasted_Chicken
 + 121.2 Foods_Sardines_in_Oil + 168 Foods_Scrambled_Eggs
 + 126.2 Foods_Skim_Milk + 1237.1 Foods_Spaghetti_W__Sauce
 + 265.5 Foods_Special_K + 964.8 Foods_Splt_Pea&Hamsoup + 802 Foods_Taco
 + 8.1 Foods_Tofu + 11.1 Foods_Tomato,Red,Ripe,Raw + 1744.4 Foods_Tomato_Soup
 + 149.7 Foods_Tortilla_Chip + 1915.1 Foods_Vegetbeef_Soup
 + 134.5 Foods_Wheat_Bread + 132.5 Foods_White_Bread + 0.8 Foods_White_Rice
 + 333.2 Foods_White_Tuna_in_Water <= 2000
max_Total_Fat_g: 4.7 Foods_2%_Lowfat_Milk + 8.1 Foods_3.3%_Fat,Whole_Milk
 + 0.5 Foods_Apple,Raw,W_Skin + 3.1 Foods_Apple_Pie + 0.5 Foods_Bagels
 + 0.5 Foods_Banana + 5.9 Foods_Beanbacn_Soup,W_Watr
 + 4.3 Foods_Bologna,Turkey + 4.1 Foods_Butter,Regular
 + 2.6 Foods_Cap'N_Crunch + 0.1 Foods_Carrots,Raw + 0.1 Foods_Celery,_Raw
 + 9.3 Foods_Cheddar_Cheese + 1.8 Foods_Cheerios + 4.6 Foods_Chicknoodl_Soup
 + 4.5 Foods_Chocolate_Chip_Cookies + 0.1 Foods_Corn_Flks,_Kellogg'S
 + 0.1 Foods_Couscous + 13.6 Foods_Crm_Mshrm_Soup,W_Mlk
 + 12.8 Foods_Frankfurter,_Beef + 0.8 Foods_Frozen_Broccoli
 + 0.6 Foods_Frozen_Corn + 0.1 Foods_Grapes + 1.4 Foods_Ham,Sliced,Extralean
 + 10.2 Foods_Hamburger_W_Toppings + 14.5 Foods_Hotdog,_Plain
 + 7.1 Foods_Kielbasa,Prk + 0.3 Foods_Kiwifruit,Raw,Fresh
 + 0.5 Foods_Macaroni,Ckd + 1.5 Foods_Malt_O_Meal,Choc
 + 6.6 Foods_New_E_Clamchwd,W_Mlk + 5 Foods_Neweng_Clamchwd
 + 2.3 Foods_Oatmeal + 3.3 Foods_Oatmeal_Cookies + 0.2 Foods_Oranges
 + 16 Foods_Peanut_Butter + 0.1 Foods_Peppers,_Sweet,_Raw
 + 7 Foods_Pizza_W_Pepperoni + 5 Foods_Poached_Eggs
 + 1.2 Foods_Popcorn,Air_Popped + 72.2 Foods_Pork
 + 9.2 Foods_Potato_Chips,Bbqflvr + 0.2 Foods_Potatoes,_Baked + Foods_Pretzels
 + 0.7 Foods_Raisin_Brn,_Kellg'S + 0.2 Foods_Rice_Krispies
 + 10.8 Foods_Roasted_Chicken + 2.7 Foods_Sardines_in_Oil
 + 7.3 Foods_Scrambled_Eggs + 0.4 Foods_Skim_Milk
 + 12.3 Foods_Spaghetti_W__Sauce + 0.1 Foods_Special_K
 + 4 Foods_Splt_Pea&Hamsoup + 20.6 Foods_Taco + 5.5 Foods_Tofu
 + 0.4 Foods_Tomato,Red,Ripe,Raw + 3.8 Foods_Tomato_Soup
 + 7.4 Foods_Tortilla_Chip + 3.8 Foods_Vegetbeef_Soup + Foods_Wheat_Bread
 + Foods_White_Bread + 0.2 Foods_White_Rice + 2.1 Foods_White_Tuna_in_Water
 <= 70
max_Vit_A_IU: 500.2 Foods_2%_Lowfat_Milk + 307.4 Foods_3.3%_Fat,Whole_Milk
 + 73.1 Foods_Apple,Raw,W_Skin + 35.2 Foods_Apple_Pie + 92.3 Foods_Banana
 + 888 Foods_Beanbacn_Soup,W_Watr + 152.9 Foods_Butter,Regular
 + 40.6 Foods_Cap'N_Crunch + 15471 Foods_Carrots,Raw + 53.6 Foods_Celery,_Raw
 + 296.5 Foods_Cheddar_Cheese + 1252.2 Foods_Cheerios
 + 1308.7 Foods_Chicknoodl_Soup + 101.8 Foods_Chocolate_Chip_Cookies
 + 1252.2 Foods_Corn_Flks,_Kellogg'S + 153.8 Foods_Crm_Mshrm_Soup,W_Mlk
 + 5867.4 Foods_Frozen_Broccoli + 106.6 Foods_Frozen_Corn + 24 Foods_Grapes
 + 126.3 Foods_Hamburger_W_Toppings + 133 Foods_Kiwifruit,Raw,Fresh
 + 66 Foods_Lettuce,Iceberg,Raw + 163.7 Foods_New_E_Clamchwd,W_Mlk
 + 20.1 Foods_Neweng_Clamchwd + 37.4 Foods_Oatmeal + 2.9 Foods_Oatmeal_Cookies
 + 268.6 Foods_Oranges + 467.7 Foods_Peppers,_Sweet,_Raw
 + 281.9 Foods_Pizza_W_Pepperoni + 316 Foods_Poached_Eggs
 + 55.6 Foods_Popcorn,Air_Popped + 14.7 Foods_Pork
 + 61.5 Foods_Potato_Chips,Bbqflvr + 1250.2 Foods_Raisin_Brn,_Kellg'S
 + 1252.2 Foods_Rice_Krispies + 77.4 Foods_Roasted_Chicken
 + 53.8 Foods_Sardines_in_Oil + 409.2 Foods_Scrambled_Eggs
 + 499.8 Foods_Skim_Milk + 3055.2 Foods_Spaghetti_W__Sauce
 + 1252.2 Foods_Special_K + 4872 Foods_Splt_Pea&Hamsoup + 855 Foods_Taco
 + 98.6 Foods_Tofu + 766.3 Foods_Tomato,Red,Ripe,Raw + 1393 Foods_Tomato_Soup
 + 55.6 Foods_Tortilla_Chip + 3785.1 Foods_Vegetbeef_Soup
 + 68 Foods_White_Tuna_in_Water <= 10000
max_Vit_C_IU: 2.3 Foods_2%_Lowfat_Milk + 2.3 Foods_3.3%_Fat,Whole_Milk
 + 7.9 Foods_Apple,Raw,W_Skin + 0.9 Foods_Apple_Pie + 10.4 Foods_Banana
 + 1.5 Foods_Beanbacn_Soup,W_Watr + 5.1 Foods_Carrots,Raw
 + 2.8 Foods_Celery,_Raw + 15.1 Foods_Cheerios
 + 15.1 Foods_Corn_Flks,_Kellogg'S + 2.2 Foods_Crm_Mshrm_Soup,W_Mlk
 + 10.8 Foods_Frankfurter,_Beef + 160.2 Foods_Frozen_Broccoli
 + 5.2 Foods_Frozen_Corn + Foods_Grapes + 7.4 Foods_Ham,Sliced,Extralean
 + 2.6 Foods_Hamburger_W_Toppings + 0.1 Foods_Hotdog,_Plain
 + 5.5 Foods_Kielbasa,Prk + 74.5 Foods_Kiwifruit,Raw,Fresh
 + 0.8 Foods_Lettuce,Iceberg,Raw + 3.5 Foods_New_E_Clamchwd,W_Mlk
 + 4.8 Foods_Neweng_Clamchwd + 0.1 Foods_Oatmeal_Cookies + 69.7 Foods_Oranges
 + 66.1 Foods_Peppers,_Sweet,_Raw + 1.6 Foods_Pizza_W_Pepperoni
 + 9.6 Foods_Potato_Chips,Bbqflvr + 15.6 Foods_Potatoes,_Baked
 + 15.1 Foods_Rice_Krispies + 0.1 Foods_Scrambled_Eggs + 2.4 Foods_Skim_Milk
 + 27.9 Foods_Spaghetti_W__Sauce + 15.1 Foods_Special_K
 + 7 Foods_Splt_Pea&Hamsoup + 2.2 Foods_Taco + 0.1 Foods_Tofu
 + 23.5 Foods_Tomato,Red,Ripe,Raw + 133 Foods_Tomato_Soup
 + 4.8 Foods_Vegetbeef_Soup <= 5000
min_Calcium_mg: 296.7 Foods_2%_Lowfat_Milk + 291.3 Foods_3.3%_Fat,Whole_Milk
 + 9.7 Foods_Apple,Raw,W_Skin + 3.1 Foods_Apple_Pie + 21 Foods_Bagels
 + 6.8 Foods_Banana + 81 Foods_Beanbacn_Soup,W_Watr
 + 23.8 Foods_Bologna,Turkey + 1.2 Foods_Butter,Regular
 + 4.8 Foods_Cap'N_Crunch + 14.9 Foods_Carrots,Raw + 16 Foods_Celery,_Raw
 + 202 Foods_Cheddar_Cheese + 48.6 Foods_Cheerios + 27.1 Foods_Chicknoodl_Soup
 + 6.2 Foods_Chocolate_Chip_Cookies + 0.9 Foods_Corn_Flks,_Kellogg'S
 + 7.2 Foods_Couscous + 178.6 Foods_Crm_Mshrm_Soup,W_Mlk
 + 9 Foods_Frankfurter,_Beef + 159 Foods_Frozen_Broccoli
 + 3.3 Foods_Frozen_Corn + 3.4 Foods_Grapes + 2 Foods_Ham,Sliced,Extralean
 + 51.4 Foods_Hamburger_W_Toppings + 23.5 Foods_Hotdog,_Plain
 + 11.4 Foods_Kielbasa,Prk + 19.8 Foods_Kiwifruit,Raw,Fresh
 + 3.8 Foods_Lettuce,Iceberg,Raw + 4.9 Foods_Macaroni,Ckd
 + 23.1 Foods_Malt_O_Meal,Choc + 186 Foods_New_E_Clamchwd,W_Mlk
 + 82.8 Foods_Neweng_Clamchwd + 18.7 Foods_Oatmeal + 6.7 Foods_Oatmeal_Cookies
 + 52.4 Foods_Oranges + 13.1 Foods_Peanut_Butter
 + 6.7 Foods_Peppers,_Sweet,_Raw + 64.6 Foods_Pizza_W_Pepperoni
 + 24.5 Foods_Poached_Eggs + 2.8 Foods_Popcorn,Air_Popped + 59.9 Foods_Pork
 + 14.2 Foods_Potato_Chips,Bbqflvr + 22.7 Foods_Potatoes,_Baked
 + 10.2 Foods_Pretzels + 12.9 Foods_Raisin_Brn,_Kellg'S
 + 4 Foods_Rice_Krispies + 21.9 Foods_Roasted_Chicken
 + 91.7 Foods_Sardines_in_Oil + 42.6 Foods_Scrambled_Eggs
 + 302.3 Foods_Skim_Milk + 80.2 Foods_Spaghetti_W__Sauce + 8.2 Foods_Special_K
 + 33.6 Foods_Splt_Pea&Hamsoup + 220.6 Foods_Taco + 121.8 Foods_Tofu
 + 6.2 Foods_Tomato,Red,Ripe,Raw + 27.6 Foods_Tomato_Soup
 + 43.7 Foods_Tortilla_Chip + 32.6 Foods_Vegetbeef_Soup
 + 10.8 Foods_Wheat_Bread + 26.2 Foods_White_Bread + 7.9 Foods_White_Rice
 + 3.4 Foods_White_Tuna_in_Water >= 700
min_Calories: 121.2 Foods_2%_Lowfat_Milk + 149.9 Foods_3.3%_Fat,Whole_Milk
 + 81.4 Foods_Apple,Raw,W_Skin + 67.2 Foods_Apple_Pie + 78 Foods_Bagels
 + 104.9 Foods_Banana + 172 Foods_Beanbacn_Soup,W_Watr
 + 56.4 Foods_Bologna,Turkey + 35.8 Foods_Butter,Regular
 + 119.6 Foods_Cap'N_Crunch + 23.7 Foods_Carrots,Raw + 6.4 Foods_Celery,_Raw
 + 112.7 Foods_Cheddar_Cheese + 111 Foods_Cheerios
 + 150.1 Foods_Chicknoodl_Soup + 78.1 Foods_Chocolate_Chip_Cookies
 + 110.5 Foods_Corn_Flks,_Kellogg'S + 100.8 Foods_Couscous
 + 203.4 Foods_Crm_Mshrm_Soup,W_Mlk + 141.8 Foods_Frankfurter,_Beef
 + 73.8 Foods_Frozen_Broccoli + 72.2 Foods_Frozen_Corn + 15.1 Foods_Grapes
 + 37.1 Foods_Ham,Sliced,Extralean + 275 Foods_Hamburger_W_Toppings
 + 242.1 Foods_Hotdog,_Plain + 80.6 Foods_Kielbasa,Prk
 + 46.4 Foods_Kiwifruit,Raw,Fresh + 2.6 Foods_Lettuce,Iceberg,Raw
 + 98.7 Foods_Macaroni,Ckd + 607.2 Foods_Malt_O_Meal,Choc
 + 163.7 Foods_New_E_Clamchwd,W_Mlk + 175.7 Foods_Neweng_Clamchwd
 + 145.1 Foods_Oatmeal + 81 Foods_Oatmeal_Cookies + 61.6 Foods_Oranges
 + 188.5 Foods_Peanut_Butter + 20 Foods_Peppers,_Sweet,_Raw
 + 181 Foods_Pizza_W_Pepperoni + 74.5 Foods_Poached_Eggs
 + 108.3 Foods_Popcorn,Air_Popped + 710.8 Foods_Pork
 + 139.2 Foods_Potato_Chips,Bbqflvr + 171.5 Foods_Potatoes,_Baked
 + 108 Foods_Pretzels + 115.1 Foods_Raisin_Brn,_Kellg'S
 + 112.2 Foods_Rice_Krispies + 277.4 Foods_Roasted_Chicken
 + 49.9 Foods_Sardines_in_Oil + 99.6 Foods_Scrambled_Eggs
 + 85.5 Foods_Skim_Milk + 358.2 Foods_Spaghetti_W__Sauce
 + 110.8 Foods_Special_K + 184.8 Foods_Splt_Pea&Hamsoup + 369.4 Foods_Taco
 + 88.2 Foods_Tofu + 25.8 Foods_Tomato,Red,Ripe,Raw + 170.7 Foods_Tomato_Soup
 + 142 Foods_Tortilla_Chip + 158.1 Foods_Vegetbeef_Soup + 65 Foods_Wheat_Bread
 + 65 Foods_White_Bread + 102.7 Foods_White_Rice
 + 115.6 Foods_White_Tuna_in_Water >= 1500
min_Carbohydrates_g: 11.7 Foods_2%_Lowfat_Milk
 + 11.4 Foods_3.3%_Fat,Whole_Milk + 21 Foods_Apple,Raw,W_Skin
 + 9.6 Foods_Apple_Pie + 15.1 Foods_Bagels + 26.7 Foods_Banana
 + 22.8 Foods_Beanbacn_Soup,W_Watr + 0.3 Foods_Bologna,Turkey
 + 23 Foods_Cap'N_Crunch + 5.6 Foods_Carrots,Raw + 1.5 Foods_Celery,_Raw
 + 0.4 Foods_Cheddar_Cheese + 19.6 Foods_Cheerios + 18.7 Foods_Chicknoodl_Soup
 + 9.3 Foods_Chocolate_Chip_Cookies + 24.5 Foods_Corn_Flks,_Kellogg'S
 + 20.9 Foods_Couscous + 15 Foods_Crm_Mshrm_Soup,W_Mlk
 + 0.8 Foods_Frankfurter,_Beef + 13.6 Foods_Frozen_Broccoli
 + 17.1 Foods_Frozen_Corn + 4.1 Foods_Grapes + 0.3 Foods_Ham,Sliced,Extralean
 + 32.7 Foods_Hamburger_W_Toppings + 18 Foods_Hotdog,_Plain
 + 0.6 Foods_Kielbasa,Prk + 11.3 Foods_Kiwifruit,Raw,Fresh
 + 0.4 Foods_Lettuce,Iceberg,Raw + 19.8 Foods_Macaroni,Ckd
 + 128.2 Foods_Malt_O_Meal,Choc + 16.6 Foods_New_E_Clamchwd,W_Mlk
 + 21.8 Foods_Neweng_Clamchwd + 25.3 Foods_Oatmeal
 + 12.4 Foods_Oatmeal_Cookies + 15.4 Foods_Oranges + 6.9 Foods_Peanut_Butter
 + 4.8 Foods_Peppers,_Sweet,_Raw + 19.9 Foods_Pizza_W_Pepperoni
 + 0.6 Foods_Poached_Eggs + 22.1 Foods_Popcorn,Air_Popped
 + 15 Foods_Potato_Chips,Bbqflvr + 39.9 Foods_Potatoes,_Baked
 + 22.5 Foods_Pretzels + 27.9 Foods_Raisin_Brn,_Kellg'S
 + 24.8 Foods_Rice_Krispies + 1.3 Foods_Scrambled_Eggs + 11.9 Foods_Skim_Milk
 + 58.3 Foods_Spaghetti_W__Sauce + 21.3 Foods_Special_K
 + 26.8 Foods_Splt_Pea&Hamsoup + 26.7 Foods_Taco + 2.2 Foods_Tofu
 + 5.7 Foods_Tomato,Red,Ripe,Raw + 33.2 Foods_Tomato_Soup
 + 17.8 Foods_Tortilla_Chip + 20.4 Foods_Vegetbeef_Soup
 + 12.4 Foods_Wheat_Bread + 11.8 Foods_White_Bread + 22.3 Foods_White_Rice
 >= 130
min_Cholesterol_mg: 18.3 Foods_2%_Lowfat_Milk + 33.2 Foods_3.3%_Fat,Whole_Milk
 + 2.5 Foods_Beanbacn_Soup,W_Watr + 28.1 Foods_Bologna,Turkey
 + 10.9 Foods_Butter,Regular + 29.4 Foods_Cheddar_Cheese
 + 12.3 Foods_Chicknoodl_Soup + 5.1 Foods_Chocolate_Chip_Cookies
 + 19.8 Foods_Crm_Mshrm_Soup,W_Mlk + 27.4 Foods_Frankfurter,_Beef
 + 13.3 Foods_Ham,Sliced,Extralean + 42.8 Foods_Hamburger_W_Toppings
 + 44.1 Foods_Hotdog,_Plain + 17.4 Foods_Kielbasa,Prk
 + 22.3 Foods_New_E_Clamchwd,W_Mlk + 10 Foods_Neweng_Clamchwd
 + 14.2 Foods_Pizza_W_Pepperoni + 211.5 Foods_Poached_Eggs + 105.1 Foods_Pork
 + 129.9 Foods_Roasted_Chicken + 34.1 Foods_Sardines_in_Oil
 + 211.2 Foods_Scrambled_Eggs + 4.4 Foods_Skim_Milk
 + 7.2 Foods_Splt_Pea&Hamsoup + 56.4 Foods_Taco + 10 Foods_Vegetbeef_Soup
 + 35.7 Foods_White_Tuna_in_Water >= 30
min_Dietary_Fiber_g: 3.7 Foods_Apple,Raw,W_Skin + 0.5 Foods_Apple_Pie
 + 0.6 Foods_Bagels + 2.7 Foods_Banana + 8.6 Foods_Beanbacn_Soup,W_Watr
 + 0.5 Foods_Cap'N_Crunch + 1.6 Foods_Carrots,Raw + 0.7 Foods_Celery,_Raw
 + 2 Foods_Cheerios + 1.5 Foods_Chicknoodl_Soup
 + 0.7 Foods_Corn_Flks,_Kellogg'S + 1.3 Foods_Couscous
 + 0.5 Foods_Crm_Mshrm_Soup,W_Mlk + 8.5 Foods_Frozen_Broccoli
 + 2 Foods_Frozen_Corn + 0.2 Foods_Grapes + 2.6 Foods_Kiwifruit,Raw,Fresh
 + 0.3 Foods_Lettuce,Iceberg,Raw + 0.9 Foods_Macaroni,Ckd
 + 1.5 Foods_New_E_Clamchwd,W_Mlk + 1.5 Foods_Neweng_Clamchwd
 + 4 Foods_Oatmeal + 0.6 Foods_Oatmeal_Cookies + 3.1 Foods_Oranges
 + 2.1 Foods_Peanut_Butter + 1.3 Foods_Peppers,_Sweet,_Raw
 + 4.3 Foods_Popcorn,Air_Popped + 1.2 Foods_Potato_Chips,Bbqflvr
 + 3.2 Foods_Potatoes,_Baked + 0.9 Foods_Pretzels
 + 4 Foods_Raisin_Brn,_Kellg'S + 0.4 Foods_Rice_Krispies
 + 11.6 Foods_Spaghetti_W__Sauce + 0.7 Foods_Special_K
 + 4.1 Foods_Splt_Pea&Hamsoup + 1.4 Foods_Tofu + 1.4 Foods_Tomato,Red,Ripe,Raw
 + Foods_Tomato_Soup + 1.8 Foods_Tortilla_Chip + 4 Foods_Vegetbeef_Soup
 + 1.3 Foods_Wheat_Bread + 1.1 Foods_White_Bread + 0.3 Foods_White_Rice >= 125
min_Protein_g: 8.1 Foods_2%_Lowfat_Milk + 8 Foods_3.3%_Fat,Whole_Milk
 + 0.3 Foods_Apple,Raw,W_Skin + 0.5 Foods_Apple_Pie + 3 Foods_Bagels
 + 1.2 Foods_Banana + 7.9 Foods_Beanbacn_Soup,W_Watr
 + 3.9 Foods_Bologna,Turkey + 1.4 Foods_Cap'N_Crunch + 0.6 Foods_Carrots,Raw
 + 0.3 Foods_Celery,_Raw + 7 Foods_Cheddar_Cheese + 4.3 Foods_Cheerios
 + 7.9 Foods_Chicknoodl_Soup + 0.9 Foods_Chocolate_Chip_Cookies
 + 2.3 Foods_Corn_Flks,_Kellogg'S + 3.4 Foods_Couscous
 + 6.1 Foods_Crm_Mshrm_Soup,W_Mlk + 5.4 Foods_Frankfurter,_Beef
 + 8 Foods_Frozen_Broccoli + 2.5 Foods_Frozen_Corn + 0.2 Foods_Grapes
 + 5.5 Foods_Ham,Sliced,Extralean + 13.6 Foods_Hamburger_W_Toppings
 + 10.4 Foods_Hotdog,_Plain + 3.4 Foods_Kielbasa,Prk
 + 0.8 Foods_Kiwifruit,Raw,Fresh + 0.2 Foods_Lettuce,Iceberg,Raw
 + 3.3 Foods_Macaroni,Ckd + 17.3 Foods_Malt_O_Meal,Choc
 + 9.5 Foods_New_E_Clamchwd,W_Mlk + 10.9 Foods_Neweng_Clamchwd
 + 6.1 Foods_Oatmeal + 1.1 Foods_Oatmeal_Cookies + 1.2 Foods_Oranges
 + 7.7 Foods_Peanut_Butter + 0.7 Foods_Peppers,_Sweet,_Raw
 + 10.1 Foods_Pizza_W_Pepperoni + 6.2 Foods_Poached_Eggs
 + 3.4 Foods_Popcorn,Air_Popped + 13.8 Foods_Pork
 + 2.2 Foods_Potato_Chips,Bbqflvr + 3.7 Foods_Potatoes,_Baked
 + 2.6 Foods_Pretzels + 4 Foods_Raisin_Brn,_Kellg'S + 1.9 Foods_Rice_Krispies
 + 42.2 Foods_Roasted_Chicken + 5.9 Foods_Sardines_in_Oil
 + 6.7 Foods_Scrambled_Eggs + 8.4 Foods_Skim_Milk
 + 8.2 Foods_Spaghetti_W__Sauce + 5.6 Foods_Special_K
 + 11.1 Foods_Splt_Pea&Hamsoup + 20.7 Foods_Taco + 9.4 Foods_Tofu
 + Foods_Tomato,Red,Ripe,Raw + 4.1 Foods_Tomato_Soup + 2 Foods_Tortilla_Chip
 + 11.2 Foods_Vegetbeef_Soup + 2.2 Foods_Wheat_Bread + 2.3 Foods_White_Bread
 + 2.1 Foods_White_Rice + 22.7 Foods_White_Tuna_in_Water >= 60
min_Sodium_mg: 121.8 Foods_2%_Lowfat_Milk + 119.6 Foods_3.3%_Fat,Whole_Milk
 + 75.4 Foods_Apple_Pie + 151.4 Foods_Bagels + 1.1 Foods_Banana
 + 951.3 Foods_Beanbacn_Soup,W_Watr + 248.9 Foods_Bologna,Turkey
 + 41.3 Foods_Butter,Regular + 213.3 Foods_Cap'N_Crunch
 + 19.2 Foods_Carrots,Raw + 34.8 Foods_Celery,_Raw
 + 173.7 Foods_Cheddar_Cheese + 307.6 Foods_Cheerios
 + 1862.2 Foods_Chicknoodl_Soup + 57.8 Foods_Chocolate_Chip_Cookies
 + 290.5 Foods_Corn_Flks,_Kellogg'S + 4.5 Foods_Couscous
 + 1076.3 Foods_Crm_Mshrm_Soup,W_Mlk + 461.7 Foods_Frankfurter,_Beef
 + 68.2 Foods_Frozen_Broccoli + 2.5 Foods_Frozen_Corn + 0.5 Foods_Grapes
 + 405.1 Foods_Ham,Sliced,Extralean + 563.9 Foods_Hamburger_W_Toppings
 + 670.3 Foods_Hotdog,_Plain + 279.8 Foods_Kielbasa,Prk
 + 3.8 Foods_Kiwifruit,Raw,Fresh + 1.8 Foods_Lettuce,Iceberg,Raw
 + 0.7 Foods_Macaroni,Ckd + 16.5 Foods_Malt_O_Meal,Choc
 + 992 Foods_New_E_Clamchwd,W_Mlk + 1864.9 Foods_Neweng_Clamchwd
 + 2.3 Foods_Oatmeal + 68.9 Foods_Oatmeal_Cookies + 155.5 Foods_Peanut_Butter
 + 1.5 Foods_Peppers,_Sweet,_Raw + 267 Foods_Pizza_W_Pepperoni
 + 140 Foods_Poached_Eggs + 1.1 Foods_Popcorn,Air_Popped + 38.4 Foods_Pork
 + 212.6 Foods_Potato_Chips,Bbqflvr + 15.2 Foods_Potatoes,_Baked
 + 486.2 Foods_Pretzels + 204.4 Foods_Raisin_Brn,_Kellg'S
 + 340.8 Foods_Rice_Krispies + 125.6 Foods_Roasted_Chicken
 + 121.2 Foods_Sardines_in_Oil + 168 Foods_Scrambled_Eggs
 + 126.2 Foods_Skim_Milk + 1237.1 Foods_Spaghetti_W__Sauce
 + 265.5 Foods_Special_K + 964.8 Foods_Splt_Pea&Hamsoup + 802 Foods_Taco
 + 8.1 Foods_Tofu + 11.1 Foods_Tomato,Red,Ripe,Raw + 1744.4 Foods_Tomato_Soup
 + 149.7 Foods_Tortilla_Chip + 1915.1 Foods_Vegetbeef_Soup
 + 134.5 Foods_Wheat_Bread + 132.5 Foods_White_Bread + 0.8 Foods_White_Rice
 + 333.2 Foods_White_Tuna_in_Water >= 800
min_Total_Fat_g: 4.7 Foods_2%_Lowfat_Milk + 8.1 Foods_3.3%_Fat,Whole_Milk
 + 0.5 Foods_Apple,Raw,W_Skin + 3.1 Foods_Apple_Pie + 0.5 Foods_Bagels
 + 0.5 Foods_Banana + 5.9 Foods_Beanbacn_Soup,W_Watr
 + 4.3 Foods_Bologna,Turkey + 4.1 Foods_Butter,Regular
 + 2.6 Foods_Cap'N_Crunch + 0.1 Foods_Carrots,Raw + 0.1 Foods_Celery,_Raw
 + 9.3 Foods_Cheddar_Cheese + 1.8 Foods_Cheerios + 4.6 Foods_Chicknoodl_Soup
 + 4.5 Foods_Chocolate_Chip_Cookies + 0.1 Foods_Corn_Flks,_Kellogg'S
 + 0.1 Foods_Couscous + 13.6 Foods_Crm_Mshrm_Soup,W_Mlk
 + 12.8 Foods_Frankfurter,_Beef + 0.8 Foods_Frozen_Broccoli
 + 0.6 Foods_Frozen_Corn + 0.1 Foods_Grapes + 1.4 Foods_Ham,Sliced,Extralean
 + 10.2 Foods_Hamburger_W_Toppings + 14.5 Foods_Hotdog,_Plain
 + 7.1 Foods_Kielbasa,Prk + 0.3 Foods_Kiwifruit,Raw,Fresh
 + 0.5 Foods_Macaroni,Ckd + 1.5 Foods_Malt_O_Meal,Choc
 + 6.6 Foods_New_E_Clamchwd,W_Mlk + 5 Foods_Neweng_Clamchwd
 + 2.3 Foods_Oatmeal + 3.3 Foods_Oatmeal_Cookies + 0.2 Foods_Oranges
 + 16 Foods_Peanut_Butter + 0.1 Foods_Peppers,_Sweet,_Raw
 + 7 Foods_Pizza_W_Pepperoni + 5 Foods_Poached_Eggs
 + 1.2 Foods_Popcorn,Air_Popped + 72.2 Foods_Pork
 + 9.2 Foods_Potato_Chips,Bbqflvr + 0.2 Foods_Potatoes,_Baked + Foods_Pretzels
 + 0.7 Foods_Raisin_Brn,_Kellg'S + 0.2 Foods_Rice_Krispies
 + 10.8 Foods_Roasted_Chicken + 2.7 Foods_Sardines_in_Oil
 + 7.3 Foods_Scrambled_Eggs + 0.4 Foods_Skim_Milk
 + 12.3 Foods_Spaghetti_W__Sauce + 0.1 Foods_Special_K
 + 4 Foods_Splt_Pea&Hamsoup + 20.6 Foods_Taco + 5.5 Foods_Tofu
 + 0.4 Foods_Tomato,Red,Ripe,Raw + 3.8 Foods_Tomato_Soup
 + 7.4 Foods_Tortilla_Chip + 3.8 Foods_Vegetbeef_Soup + Foods_Wheat_Bread
 + Foods_White_Bread + 0.2 Foods_White_Rice + 2.1 Foods_White_Tuna_in_Water
 >= 20
min_Vit_A_IU: 500.2 Foods_2%_Lowfat_Milk + 307.4 Foods_3.3%_Fat,Whole_Milk
 + 73.1 Foods_Apple,Raw,W_Skin + 35.2 Foods_Apple_Pie + 92.3 Foods_Banana
 + 888 Foods_Beanbacn_Soup,W_Watr + 152.9 Foods_Butter,Regular
 + 40.6 Foods_Cap'N_Crunch + 15471 Foods_Carrots,Raw + 53.6 Foods_Celery,_Raw
 + 296.5 Foods_Cheddar_Cheese + 1252.2 Foods_Cheerios
 + 1308.7 Foods_Chicknoodl_Soup + 101.8 Foods_Chocolate_Chip_Cookies
 + 1252.2 Foods_Corn_Flks,_Kellogg'S + 153.8 Foods_Crm_Mshrm_Soup,W_Mlk
 + 5867.4 Foods_Frozen_Broccoli + 106.6 Foods_Frozen_Corn + 24 Foods_Grapes
 + 126.3 Foods_Hamburger_W_Toppings + 133 Foods_Kiwifruit,Raw,Fresh
 + 66 Foods_Lettuce,Iceberg,Raw + 163.7 Foods_New_E_Clamchwd,W_Mlk
 + 20.1 Foods_Neweng_Clamchwd + 37.4 Foods_Oatmeal + 2.9 Foods_Oatmeal_Cookies
 + 268.6 Foods_Oranges + 467.7 Foods_Peppers,_Sweet,_Raw
 + 281.9 Foods_Pizza_W_Pepperoni + 316 Foods_Poached_Eggs
 + 55.6 Foods_Popcorn,Air_Popped + 14.7 Foods_Pork
 + 61.5 Foods_Potato_Chips,Bbqflvr + 1250.2 Foods_Raisin_Brn,_Kellg'S
 + 1252.2 Foods_Rice_Krispies + 77.4 Foods_Roasted_Chicken
 + 53.8 Foods_Sardines_in_Oil + 409.2 Foods_Scrambled_Eggs
 + 499.8 Foods_Skim_Milk + 3055.2 Foods_Spaghetti_W__Sauce
 + 1252.2 Foods_Special_K + 4872 Foods_Splt_Pea&Hamsoup + 855 Foods_Taco
 + 98.6 Foods_Tofu + 766.3 Foods_Tomato,Red,Ripe,Raw + 1393 Foods_Tomato_Soup
 + 55.6 Foods_Tortilla_Chip + 3785.1 Foods_Vegetbeef_Soup
 + 68 Foods_White_Tuna_in_Water >= 1000
min_Vit_C_IU: 2.3 Foods_2%_Lowfat_Milk + 2.3 Foods_3.3%_Fat,Whole_Milk
 + 7.9 Foods_Apple,Raw,W_Skin + 0.9 Foods_Apple_Pie + 10.4 Foods_Banana
 + 1.5 Foods_Beanbacn_Soup,W_Watr + 5.1 Foods_Carrots,Raw
 + 2.8 Foods_Celery,_Raw + 15.1 Foods_Cheerios
 + 15.1 Foods_Corn_Flks,_Kellogg'S + 2.2 Foods_Crm_Mshrm_Soup,W_Mlk
 + 10.8 Foods_Frankfurter,_Beef + 160.2 Foods_Frozen_Broccoli
 + 5.2 Foods_Frozen_Corn + Foods_Grapes + 7.4 Foods_Ham,Sliced,Extralean
 + 2.6 Foods_Hamburger_W_Toppings + 0.1 Foods_Hotdog,_Plain
 + 5.5 Foods_Kielbasa,Prk + 74.5 Foods_Kiwifruit,Raw,Fresh
 + 0.8 Foods_Lettuce,Iceberg,Raw + 3.5 Foods_New_E_Clamchwd,W_Mlk
 + 4.8 Foods_Neweng_Clamchwd + 0.1 Foods_Oatmeal_Cookies + 69.7 Foods_Oranges
 + 66.1 Foods_Peppers,_Sweet,_Raw + 1.6 Foods_Pizza_W_Pepperoni
 + 9.6 Foods_Potato_Chips,Bbqflvr + 15.6 Foods_Potatoes,_Baked
 + 15.1 Foods_Rice_Krispies + 0.1 Foods_Scrambled_Eggs + 2.4 Foods_Skim_Milk
 + 27.9 Foods_Spaghetti_W__Sauce + 15.1 Foods_Special_K
 + 7 Foods_Splt_Pea&Hamsoup + 2.2 Foods_Taco + 0.1 Foods_Tofu
 + 23.5 Foods_Tomato,Red,Ripe,Raw + 133 Foods_Tomato_Soup
 + 4.8 Foods_Vegetbeef_Soup >= 400
End
